<number of tasks>
30
<cycle time>
205
<task times>
1 70 70 
2 62 62 
3 47 47 
4 67 67 
5 33 33 
6 31 31 
7 53 53 
8 21 21 
9 21 21 
10 107 107 
11 19 19 
12 108 108 
13 52 52 
14 17 17 
15 8 8 
16 8 8 
17 6 6 
18 5 5 
19 3 3 
20 3 3 
21 2 2 
22 1 1 
24 59 0 
25 0 45 
26 0 25 
28 97 97 
29 27 27 
30 17 17 
31 8 8 
32 72 72 
<precedence relations>
1 2 
1 3 
1 5 
1 9 
1 14 
1 16 
1 17 
1 19 
1 20 
1 22 
1 24 
1 25 
2 6 
3 4 
4 32 
5 32 
6 7 
7 8 
7 11 
8 18 
9 10 
10 32 
11 12 
12 13 
12 15 
13 32 
14 32 
15 32 
16 32 
17 32 
18 32 
19 32 
20 21 
21 32 
22 32 
24 28 
24 29 
25 26 
26 28 
26 29 
28 32 
29 30 
30 31 
31 32 
<zones>
1 4 
2 6 
3 17 
4 6 
5 24 
6 13 
7 9 
8 8 
9 2 
10 12 
11 9 
12 6 
13 9 
14 6 
15 24 
16 16 
17 2 
18 5 
19 24 
20 13 
21 21 
22 12 
24 1 
25 6 
26 24 
28 12 
29 13 
30 10 
31 5 
32 10 
<setup times forward>
1 1 0 
1 2 2 
1 3 10 
1 4 2 
1 5 15 
1 6 7 
1 7 4 
1 8 3 
1 9 1 
1 10 6 
1 11 4 
1 12 2 
1 13 4 
1 14 2 
1 15 15 
1 16 9 
1 17 1 
1 18 1 
1 19 15 
1 20 7 
1 21 13 
1 22 6 
1 24 2 
1 25 2 
1 26 15 
1 28 6 
1 29 7 
1 30 5 
1 31 1 
1 32 5 
2 1 2 
2 2 0 
2 3 8 
2 4 0 
2 5 13 
2 6 5 
2 7 2 
2 8 1 
2 9 3 
2 10 4 
2 11 2 
2 12 0 
2 13 2 
2 14 0 
2 15 13 
2 16 7 
2 17 3 
2 18 1 
2 19 13 
2 20 5 
2 21 11 
2 22 4 
2 24 4 
2 25 0 
2 26 13 
2 28 4 
2 29 5 
2 30 3 
2 31 1 
2 32 3 
3 1 10 
3 2 8 
3 3 0 
3 4 8 
3 5 5 
3 6 3 
3 7 6 
3 8 7 
3 9 11 
3 10 4 
3 11 6 
3 12 8 
3 13 6 
3 14 8 
3 15 5 
3 16 1 
3 17 11 
3 18 9 
3 19 5 
3 20 3 
3 21 3 
3 22 4 
3 24 12 
3 25 8 
3 26 5 
3 28 4 
3 29 3 
3 30 5 
3 31 9 
3 32 5 
4 1 2 
4 2 0 
4 3 8 
4 4 0 
4 5 13 
4 6 5 
4 7 2 
4 8 1 
4 9 3 
4 10 4 
4 11 2 
4 12 0 
4 13 2 
4 14 0 
4 15 13 
4 16 7 
4 17 3 
4 18 1 
4 19 13 
4 20 5 
4 21 11 
4 22 4 
4 24 4 
4 25 0 
4 26 13 
4 28 4 
4 29 5 
4 30 3 
4 31 1 
4 32 3 
5 1 15 
5 2 13 
5 3 5 
5 4 13 
5 5 0 
5 6 8 
5 7 11 
5 8 12 
5 9 16 
5 10 9 
5 11 11 
5 12 13 
5 13 11 
5 14 13 
5 15 0 
5 16 6 
5 17 16 
5 18 14 
5 19 0 
5 20 8 
5 21 2 
5 22 9 
5 24 17 
5 25 13 
5 26 0 
5 28 9 
5 29 8 
5 30 10 
5 31 14 
5 32 10 
6 1 7 
6 2 5 
6 3 3 
6 4 5 
6 5 8 
6 6 0 
6 7 3 
6 8 4 
6 9 8 
6 10 1 
6 11 3 
6 12 5 
6 13 3 
6 14 5 
6 15 8 
6 16 2 
6 17 8 
6 18 6 
6 19 8 
6 20 0 
6 21 6 
6 22 1 
6 24 9 
6 25 5 
6 26 8 
6 28 1 
6 29 0 
6 30 2 
6 31 6 
6 32 2 
7 1 4 
7 2 2 
7 3 6 
7 4 2 
7 5 11 
7 6 3 
7 7 0 
7 8 1 
7 9 5 
7 10 2 
7 11 0 
7 12 2 
7 13 0 
7 14 2 
7 15 11 
7 16 5 
7 17 5 
7 18 3 
7 19 11 
7 20 3 
7 21 9 
7 22 2 
7 24 6 
7 25 2 
7 26 11 
7 28 2 
7 29 3 
7 30 1 
7 31 3 
7 32 1 
8 1 3 
8 2 1 
8 3 7 
8 4 1 
8 5 12 
8 6 4 
8 7 1 
8 8 0 
8 9 4 
8 10 3 
8 11 1 
8 12 1 
8 13 1 
8 14 1 
8 15 12 
8 16 6 
8 17 4 
8 18 2 
8 19 12 
8 20 4 
8 21 10 
8 22 3 
8 24 5 
8 25 1 
8 26 12 
8 28 3 
8 29 4 
8 30 2 
8 31 2 
8 32 2 
9 1 1 
9 2 3 
9 3 11 
9 4 3 
9 5 16 
9 6 8 
9 7 5 
9 8 4 
9 9 0 
9 10 7 
9 11 5 
9 12 3 
9 13 5 
9 14 3 
9 15 16 
9 16 10 
9 17 0 
9 18 2 
9 19 16 
9 20 8 
9 21 14 
9 22 7 
9 24 1 
9 25 3 
9 26 16 
9 28 7 
9 29 8 
9 30 6 
9 31 2 
9 32 6 
10 1 6 
10 2 4 
10 3 4 
10 4 4 
10 5 9 
10 6 1 
10 7 2 
10 8 3 
10 9 7 
10 10 0 
10 11 2 
10 12 4 
10 13 2 
10 14 4 
10 15 9 
10 16 3 
10 17 7 
10 18 5 
10 19 9 
10 20 1 
10 21 7 
10 22 0 
10 24 8 
10 25 4 
10 26 9 
10 28 0 
10 29 1 
10 30 1 
10 31 5 
10 32 1 
11 1 4 
11 2 2 
11 3 6 
11 4 2 
11 5 11 
11 6 3 
11 7 0 
11 8 1 
11 9 5 
11 10 2 
11 11 0 
11 12 2 
11 13 0 
11 14 2 
11 15 11 
11 16 5 
11 17 5 
11 18 3 
11 19 11 
11 20 3 
11 21 9 
11 22 2 
11 24 6 
11 25 2 
11 26 11 
11 28 2 
11 29 3 
11 30 1 
11 31 3 
11 32 1 
12 1 2 
12 2 0 
12 3 8 
12 4 0 
12 5 13 
12 6 5 
12 7 2 
12 8 1 
12 9 3 
12 10 4 
12 11 2 
12 12 0 
12 13 2 
12 14 0 
12 15 13 
12 16 7 
12 17 3 
12 18 1 
12 19 13 
12 20 5 
12 21 11 
12 22 4 
12 24 4 
12 25 0 
12 26 13 
12 28 4 
12 29 5 
12 30 3 
12 31 1 
12 32 3 
13 1 4 
13 2 2 
13 3 6 
13 4 2 
13 5 11 
13 6 3 
13 7 0 
13 8 1 
13 9 5 
13 10 2 
13 11 0 
13 12 2 
13 13 0 
13 14 2 
13 15 11 
13 16 5 
13 17 5 
13 18 3 
13 19 11 
13 20 3 
13 21 9 
13 22 2 
13 24 6 
13 25 2 
13 26 11 
13 28 2 
13 29 3 
13 30 1 
13 31 3 
13 32 1 
14 1 2 
14 2 0 
14 3 8 
14 4 0 
14 5 13 
14 6 5 
14 7 2 
14 8 1 
14 9 3 
14 10 4 
14 11 2 
14 12 0 
14 13 2 
14 14 0 
14 15 13 
14 16 7 
14 17 3 
14 18 1 
14 19 13 
14 20 5 
14 21 11 
14 22 4 
14 24 4 
14 25 0 
14 26 13 
14 28 4 
14 29 5 
14 30 3 
14 31 1 
14 32 3 
15 1 15 
15 2 13 
15 3 5 
15 4 13 
15 5 0 
15 6 8 
15 7 11 
15 8 12 
15 9 16 
15 10 9 
15 11 11 
15 12 13 
15 13 11 
15 14 13 
15 15 0 
15 16 6 
15 17 16 
15 18 14 
15 19 0 
15 20 8 
15 21 2 
15 22 9 
15 24 17 
15 25 13 
15 26 0 
15 28 9 
15 29 8 
15 30 10 
15 31 14 
15 32 10 
16 1 9 
16 2 7 
16 3 1 
16 4 7 
16 5 6 
16 6 2 
16 7 5 
16 8 6 
16 9 10 
16 10 3 
16 11 5 
16 12 7 
16 13 5 
16 14 7 
16 15 6 
16 16 0 
16 17 10 
16 18 8 
16 19 6 
16 20 2 
16 21 4 
16 22 3 
16 24 11 
16 25 7 
16 26 6 
16 28 3 
16 29 2 
16 30 4 
16 31 8 
16 32 4 
17 1 1 
17 2 3 
17 3 11 
17 4 3 
17 5 16 
17 6 8 
17 7 5 
17 8 4 
17 9 0 
17 10 7 
17 11 5 
17 12 3 
17 13 5 
17 14 3 
17 15 16 
17 16 10 
17 17 0 
17 18 2 
17 19 16 
17 20 8 
17 21 14 
17 22 7 
17 24 1 
17 25 3 
17 26 16 
17 28 7 
17 29 8 
17 30 6 
17 31 2 
17 32 6 
18 1 1 
18 2 1 
18 3 9 
18 4 1 
18 5 14 
18 6 6 
18 7 3 
18 8 2 
18 9 2 
18 10 5 
18 11 3 
18 12 1 
18 13 3 
18 14 1 
18 15 14 
18 16 8 
18 17 2 
18 18 0 
18 19 14 
18 20 6 
18 21 12 
18 22 5 
18 24 3 
18 25 1 
18 26 14 
18 28 5 
18 29 6 
18 30 4 
18 31 0 
18 32 4 
19 1 15 
19 2 13 
19 3 5 
19 4 13 
19 5 0 
19 6 8 
19 7 11 
19 8 12 
19 9 16 
19 10 9 
19 11 11 
19 12 13 
19 13 11 
19 14 13 
19 15 0 
19 16 6 
19 17 16 
19 18 14 
19 19 0 
19 20 8 
19 21 2 
19 22 9 
19 24 17 
19 25 13 
19 26 0 
19 28 9 
19 29 8 
19 30 10 
19 31 14 
19 32 10 
20 1 7 
20 2 5 
20 3 3 
20 4 5 
20 5 8 
20 6 0 
20 7 3 
20 8 4 
20 9 8 
20 10 1 
20 11 3 
20 12 5 
20 13 3 
20 14 5 
20 15 8 
20 16 2 
20 17 8 
20 18 6 
20 19 8 
20 20 0 
20 21 6 
20 22 1 
20 24 9 
20 25 5 
20 26 8 
20 28 1 
20 29 0 
20 30 2 
20 31 6 
20 32 2 
21 1 13 
21 2 11 
21 3 3 
21 4 11 
21 5 2 
21 6 6 
21 7 9 
21 8 10 
21 9 14 
21 10 7 
21 11 9 
21 12 11 
21 13 9 
21 14 11 
21 15 2 
21 16 4 
21 17 14 
21 18 12 
21 19 2 
21 20 6 
21 21 0 
21 22 7 
21 24 15 
21 25 11 
21 26 2 
21 28 7 
21 29 6 
21 30 8 
21 31 12 
21 32 8 
22 1 6 
22 2 4 
22 3 4 
22 4 4 
22 5 9 
22 6 1 
22 7 2 
22 8 3 
22 9 7 
22 10 0 
22 11 2 
22 12 4 
22 13 2 
22 14 4 
22 15 9 
22 16 3 
22 17 7 
22 18 5 
22 19 9 
22 20 1 
22 21 7 
22 22 0 
22 24 8 
22 25 4 
22 26 9 
22 28 0 
22 29 1 
22 30 1 
22 31 5 
22 32 1 
24 1 2 
24 2 4 
24 3 12 
24 4 4 
24 5 17 
24 6 9 
24 7 6 
24 8 5 
24 9 1 
24 10 8 
24 11 6 
24 12 4 
24 13 6 
24 14 4 
24 15 17 
24 16 11 
24 17 1 
24 18 3 
24 19 17 
24 20 9 
24 21 15 
24 22 8 
24 24 0 
24 25 4 
24 26 17 
24 28 8 
24 29 9 
24 30 7 
24 31 3 
24 32 7 
25 1 2 
25 2 0 
25 3 8 
25 4 0 
25 5 13 
25 6 5 
25 7 2 
25 8 1 
25 9 3 
25 10 4 
25 11 2 
25 12 0 
25 13 2 
25 14 0 
25 15 13 
25 16 7 
25 17 3 
25 18 1 
25 19 13 
25 20 5 
25 21 11 
25 22 4 
25 24 4 
25 25 0 
25 26 13 
25 28 4 
25 29 5 
25 30 3 
25 31 1 
25 32 3 
26 1 15 
26 2 13 
26 3 5 
26 4 13 
26 5 0 
26 6 8 
26 7 11 
26 8 12 
26 9 16 
26 10 9 
26 11 11 
26 12 13 
26 13 11 
26 14 13 
26 15 0 
26 16 6 
26 17 16 
26 18 14 
26 19 0 
26 20 8 
26 21 2 
26 22 9 
26 24 17 
26 25 13 
26 26 0 
26 28 9 
26 29 8 
26 30 10 
26 31 14 
26 32 10 
28 1 6 
28 2 4 
28 3 4 
28 4 4 
28 5 9 
28 6 1 
28 7 2 
28 8 3 
28 9 7 
28 10 0 
28 11 2 
28 12 4 
28 13 2 
28 14 4 
28 15 9 
28 16 3 
28 17 7 
28 18 5 
28 19 9 
28 20 1 
28 21 7 
28 22 0 
28 24 8 
28 25 4 
28 26 9 
28 28 0 
28 29 1 
28 30 1 
28 31 5 
28 32 1 
29 1 7 
29 2 5 
29 3 3 
29 4 5 
29 5 8 
29 6 0 
29 7 3 
29 8 4 
29 9 8 
29 10 1 
29 11 3 
29 12 5 
29 13 3 
29 14 5 
29 15 8 
29 16 2 
29 17 8 
29 18 6 
29 19 8 
29 20 0 
29 21 6 
29 22 1 
29 24 9 
29 25 5 
29 26 8 
29 28 1 
29 29 0 
29 30 2 
29 31 6 
29 32 2 
30 1 5 
30 2 3 
30 3 5 
30 4 3 
30 5 10 
30 6 2 
30 7 1 
30 8 2 
30 9 6 
30 10 1 
30 11 1 
30 12 3 
30 13 1 
30 14 3 
30 15 10 
30 16 4 
30 17 6 
30 18 4 
30 19 10 
30 20 2 
30 21 8 
30 22 1 
30 24 7 
30 25 3 
30 26 10 
30 28 1 
30 29 2 
30 30 0 
30 31 4 
30 32 0 
31 1 1 
31 2 1 
31 3 9 
31 4 1 
31 5 14 
31 6 6 
31 7 3 
31 8 2 
31 9 2 
31 10 5 
31 11 3 
31 12 1 
31 13 3 
31 14 1 
31 15 14 
31 16 8 
31 17 2 
31 18 0 
31 19 14 
31 20 6 
31 21 12 
31 22 5 
31 24 3 
31 25 1 
31 26 14 
31 28 5 
31 29 6 
31 30 4 
31 31 0 
31 32 4 
32 1 5 
32 2 3 
32 3 5 
32 4 3 
32 5 10 
32 6 2 
32 7 1 
32 8 2 
32 9 6 
32 10 1 
32 11 1 
32 12 3 
32 13 1 
32 14 3 
32 15 10 
32 16 4 
32 17 6 
32 18 4 
32 19 10 
32 20 2 
32 21 8 
32 22 1 
32 24 7 
32 25 3 
32 26 10 
32 28 1 
32 29 2 
32 30 0 
32 31 4 
32 32 0 
<setup times backward>
1 1 18 
2 1 16 
2 2 18 
2 3 26 
2 4 18 
2 5 31 
2 9 15 
2 10 22 
2 14 18 
2 16 25 
2 17 15 
2 19 31 
2 20 23 
2 21 29 
2 22 22 
2 24 14 
2 25 18 
2 26 31 
2 28 22 
2 29 23 
2 30 21 
2 31 17 
3 1 8 
3 2 10 
3 3 18 
3 5 23 
3 6 15 
3 7 12 
3 8 11 
3 9 7 
3 10 14 
3 11 12 
3 12 10 
3 13 12 
3 14 10 
3 15 23 
3 16 17 
3 17 7 
3 18 9 
3 19 23 
3 20 15 
3 21 21 
3 22 14 
3 24 6 
3 25 10 
3 26 23 
3 28 14 
3 29 15 
3 30 13 
3 31 9 
4 1 16 
4 2 18 
4 3 26 
4 4 18 
4 5 31 
4 6 23 
4 7 20 
4 8 19 
4 9 15 
4 10 22 
4 11 20 
4 12 18 
4 13 20 
4 14 18 
4 15 31 
4 16 25 
4 17 15 
4 18 17 
4 19 31 
4 20 23 
4 21 29 
4 22 22 
4 24 14 
4 25 18 
4 26 31 
4 28 22 
4 29 23 
4 30 21 
4 31 17 
5 1 3 
5 2 5 
5 3 13 
5 4 5 
5 5 18 
5 6 10 
5 7 7 
5 8 6 
5 9 2 
5 10 9 
5 11 7 
5 12 5 
5 13 7 
5 14 5 
5 15 18 
5 16 12 
5 17 2 
5 18 4 
5 19 18 
5 20 10 
5 21 16 
5 22 9 
5 24 1 
5 25 5 
5 26 18 
5 28 9 
5 29 10 
5 30 8 
5 31 4 
6 1 11 
6 2 13 
6 3 21 
6 4 13 
6 5 26 
6 6 18 
6 9 10 
6 10 17 
6 14 13 
6 16 20 
6 17 10 
6 19 26 
6 20 18 
6 21 24 
6 22 17 
6 24 9 
6 25 13 
6 26 26 
6 28 17 
6 29 18 
6 30 16 
6 31 12 
7 1 14 
7 2 16 
7 3 24 
7 4 16 
7 5 29 
7 6 21 
7 7 18 
7 9 13 
7 10 20 
7 14 16 
7 16 23 
7 17 13 
7 19 29 
7 20 21 
7 21 27 
7 22 20 
7 24 12 
7 25 16 
7 26 29 
7 28 20 
7 29 21 
7 30 19 
7 31 15 
8 1 15 
8 2 17 
8 3 25 
8 4 17 
8 5 30 
8 6 22 
8 7 19 
8 8 18 
8 9 14 
8 10 21 
8 11 19 
8 12 17 
8 13 19 
8 14 17 
8 15 30 
8 16 24 
8 17 14 
8 19 30 
8 20 22 
8 21 28 
8 22 21 
8 24 13 
8 25 17 
8 26 30 
8 28 21 
8 29 22 
8 30 20 
8 31 16 
9 1 19 
9 2 21 
9 3 29 
9 4 21 
9 5 34 
9 6 26 
9 7 23 
9 8 22 
9 9 18 
9 11 23 
9 12 21 
9 13 23 
9 14 21 
9 15 34 
9 16 28 
9 17 18 
9 18 20 
9 19 34 
9 20 26 
9 21 32 
9 22 25 
9 24 17 
9 25 21 
9 26 34 
9 28 25 
9 29 26 
9 30 24 
9 31 20 
10 1 12 
10 2 14 
10 3 22 
10 4 14 
10 5 27 
10 6 19 
10 7 16 
10 8 15 
10 9 11 
10 10 18 
10 11 16 
10 12 14 
10 13 16 
10 14 14 
10 15 27 
10 16 21 
10 17 11 
10 18 13 
10 19 27 
10 20 19 
10 21 25 
10 22 18 
10 24 10 
10 25 14 
10 26 27 
10 28 18 
10 29 19 
10 30 17 
10 31 13 
11 1 14 
11 2 16 
11 3 24 
11 4 16 
11 5 29 
11 6 21 
11 7 18 
11 8 17 
11 9 13 
11 10 20 
11 11 18 
11 14 16 
11 16 23 
11 17 13 
11 18 15 
11 19 29 
11 20 21 
11 21 27 
11 22 20 
11 24 12 
11 25 16 
11 26 29 
11 28 20 
11 29 21 
11 30 19 
11 31 15 
12 1 16 
12 2 18 
12 3 26 
12 4 18 
12 5 31 
12 6 23 
12 7 20 
12 8 19 
12 9 15 
12 10 22 
12 11 20 
12 12 18 
12 14 18 
12 16 25 
12 17 15 
12 18 17 
12 19 31 
12 20 23 
12 21 29 
12 22 22 
12 24 14 
12 25 18 
12 26 31 
12 28 22 
12 29 23 
12 30 21 
12 31 17 
13 1 14 
13 2 16 
13 3 24 
13 4 16 
13 5 29 
13 6 21 
13 7 18 
13 8 17 
13 9 13 
13 10 20 
13 11 18 
13 12 16 
13 13 18 
13 14 16 
13 15 29 
13 16 23 
13 17 13 
13 18 15 
13 19 29 
13 20 21 
13 21 27 
13 22 20 
13 24 12 
13 25 16 
13 26 29 
13 28 20 
13 29 21 
13 30 19 
13 31 15 
14 1 16 
14 2 18 
14 3 26 
14 4 18 
14 5 31 
14 6 23 
14 7 20 
14 8 19 
14 9 15 
14 10 22 
14 11 20 
14 12 18 
14 13 20 
14 14 18 
14 15 31 
14 16 25 
14 17 15 
14 18 17 
14 19 31 
14 20 23 
14 21 29 
14 22 22 
14 24 14 
14 25 18 
14 26 31 
14 28 22 
14 29 23 
14 30 21 
14 31 17 
15 1 3 
15 2 5 
15 3 13 
15 4 5 
15 5 18 
15 6 10 
15 7 7 
15 8 6 
15 9 2 
15 10 9 
15 11 7 
15 12 5 
15 13 7 
15 14 5 
15 15 18 
15 16 12 
15 17 2 
15 18 4 
15 19 18 
15 20 10 
15 21 16 
15 22 9 
15 24 1 
15 25 5 
15 26 18 
15 28 9 
15 29 10 
15 30 8 
15 31 4 
16 1 9 
16 2 11 
16 3 19 
16 4 11 
16 5 24 
16 6 16 
16 7 13 
16 8 12 
16 9 8 
16 10 15 
16 11 13 
16 12 11 
16 13 13 
16 14 11 
16 15 24 
16 16 18 
16 17 8 
16 18 10 
16 19 24 
16 20 16 
16 21 22 
16 22 15 
16 24 7 
16 25 11 
16 26 24 
16 28 15 
16 29 16 
16 30 14 
16 31 10 
17 1 19 
17 2 21 
17 3 29 
17 4 21 
17 5 34 
17 6 26 
17 7 23 
17 8 22 
17 9 18 
17 10 25 
17 11 23 
17 12 21 
17 13 23 
17 14 21 
17 15 34 
17 16 28 
17 17 18 
17 18 20 
17 19 34 
17 20 26 
17 21 32 
17 22 25 
17 24 17 
17 25 21 
17 26 34 
17 28 25 
17 29 26 
17 30 24 
17 31 20 
18 1 17 
18 2 19 
18 3 27 
18 4 19 
18 5 32 
18 6 24 
18 7 21 
18 8 20 
18 9 16 
18 10 23 
18 11 21 
18 12 19 
18 13 21 
18 14 19 
18 15 32 
18 16 26 
18 17 16 
18 18 18 
18 19 32 
18 20 24 
18 21 30 
18 22 23 
18 24 15 
18 25 19 
18 26 32 
18 28 23 
18 29 24 
18 30 22 
18 31 18 
19 1 3 
19 2 5 
19 3 13 
19 4 5 
19 5 18 
19 6 10 
19 7 7 
19 8 6 
19 9 2 
19 10 9 
19 11 7 
19 12 5 
19 13 7 
19 14 5 
19 15 18 
19 16 12 
19 17 2 
19 18 4 
19 19 18 
19 20 10 
19 21 16 
19 22 9 
19 24 1 
19 25 5 
19 26 18 
19 28 9 
19 29 10 
19 30 8 
19 31 4 
20 1 11 
20 2 13 
20 3 21 
20 4 13 
20 5 26 
20 6 18 
20 7 15 
20 8 14 
20 9 10 
20 10 17 
20 11 15 
20 12 13 
20 13 15 
20 14 13 
20 15 26 
20 16 20 
20 17 10 
20 18 12 
20 19 26 
20 20 18 
20 22 17 
20 24 9 
20 25 13 
20 26 26 
20 28 17 
20 29 18 
20 30 16 
20 31 12 
21 1 5 
21 2 7 
21 3 15 
21 4 7 
21 5 20 
21 6 12 
21 7 9 
21 8 8 
21 9 4 
21 10 11 
21 11 9 
21 12 7 
21 13 9 
21 14 7 
21 15 20 
21 16 14 
21 17 4 
21 18 6 
21 19 20 
21 20 12 
21 21 18 
21 22 11 
21 24 3 
21 25 7 
21 26 20 
21 28 11 
21 29 12 
21 30 10 
21 31 6 
22 1 12 
22 2 14 
22 3 22 
22 4 14 
22 5 27 
22 6 19 
22 7 16 
22 8 15 
22 9 11 
22 10 18 
22 11 16 
22 12 14 
22 13 16 
22 14 14 
22 15 27 
22 16 21 
22 17 11 
22 18 13 
22 19 27 
22 20 19 
22 21 25 
22 22 18 
22 24 10 
22 25 14 
22 26 27 
22 28 18 
22 29 19 
22 30 17 
22 31 13 
24 1 20 
24 2 22 
24 3 30 
24 4 22 
24 5 35 
24 6 27 
24 7 24 
24 8 23 
24 9 19 
24 10 26 
24 11 24 
24 12 22 
24 13 24 
24 14 22 
24 15 35 
24 16 29 
24 17 19 
24 18 21 
24 19 35 
24 20 27 
24 21 33 
24 22 26 
24 24 18 
24 25 22 
24 26 35 
25 1 16 
25 2 18 
25 3 26 
25 4 18 
25 5 31 
25 6 23 
25 7 20 
25 8 19 
25 9 15 
25 10 22 
25 11 20 
25 12 18 
25 13 20 
25 14 18 
25 15 31 
25 16 25 
25 17 15 
25 18 17 
25 19 31 
25 20 23 
25 21 29 
25 22 22 
25 24 14 
25 25 18 
26 1 3 
26 2 5 
26 3 13 
26 4 5 
26 5 18 
26 6 10 
26 7 7 
26 8 6 
26 9 2 
26 10 9 
26 11 7 
26 12 5 
26 13 7 
26 14 5 
26 15 18 
26 16 12 
26 17 2 
26 18 4 
26 19 18 
26 20 10 
26 21 16 
26 22 9 
26 24 1 
26 25 5 
26 26 18 
28 1 12 
28 2 14 
28 3 22 
28 4 14 
28 5 27 
28 6 19 
28 7 16 
28 8 15 
28 9 11 
28 10 18 
28 11 16 
28 12 14 
28 13 16 
28 14 14 
28 15 27 
28 16 21 
28 17 11 
28 18 13 
28 19 27 
28 20 19 
28 21 25 
28 22 18 
28 24 10 
28 25 14 
28 26 27 
28 28 18 
28 29 19 
28 30 17 
28 31 13 
29 1 11 
29 2 13 
29 3 21 
29 4 13 
29 5 26 
29 6 18 
29 7 15 
29 8 14 
29 9 10 
29 10 17 
29 11 15 
29 12 13 
29 13 15 
29 14 13 
29 15 26 
29 16 20 
29 17 10 
29 18 12 
29 19 26 
29 20 18 
29 21 24 
29 22 17 
29 24 9 
29 25 13 
29 26 26 
29 28 17 
29 29 18 
30 1 13 
30 2 15 
30 3 23 
30 4 15 
30 5 28 
30 6 20 
30 7 17 
30 8 16 
30 9 12 
30 10 19 
30 11 17 
30 12 15 
30 13 17 
30 14 15 
30 15 28 
30 16 22 
30 17 12 
30 18 14 
30 19 28 
30 20 20 
30 21 26 
30 22 19 
30 24 11 
30 25 15 
30 26 28 
30 28 19 
30 29 20 
30 30 18 
31 1 17 
31 2 19 
31 3 27 
31 4 19 
31 5 32 
31 6 24 
31 7 21 
31 8 20 
31 9 16 
31 10 23 
31 11 21 
31 12 19 
31 13 21 
31 14 19 
31 15 32 
31 16 26 
31 17 16 
31 18 18 
31 19 32 
31 20 24 
31 21 30 
31 22 23 
31 24 15 
31 25 19 
31 26 32 
31 28 23 
31 29 24 
31 30 22 
31 31 18 
32 1 13 
32 2 15 
32 3 23 
32 4 15 
32 5 28 
32 6 20 
32 7 17 
32 8 16 
32 9 12 
32 10 19 
32 11 17 
32 12 15 
32 13 17 
32 14 15 
32 15 28 
32 16 22 
32 17 12 
32 18 14 
32 19 28 
32 20 20 
32 21 26 
32 22 19 
32 24 11 
32 25 15 
32 26 28 
32 28 19 
32 29 20 
32 30 18 
32 31 14 
32 32 18 
<or pairs>
23 27 
<end>
